50
129650

6312 29164
6891 30209
664 10221
4243 24634
8377 32551
7962 31942
6635 29757
4970 26389
7809 31709
5867 28302
9559 34116
3579 22834
8269 32396
2282 18555
4618 25565
2290 18585
1554 15458
4105 24277
8726 33039
9862 34480
2408 19028
5082 26642
1619 15765
1209 13696
5410 27359
7736 31597
9172 33630
1650 15909
5797 28162
7114 30590
5181 26862
3351 22164
9053 33476
7816 31720
7254 30824
8542 32785
4268 24698
1021 12617
8990 33393
231 6061
1529 15339
6535 29576
19 1743
8087 32129
5459 27463
3997 23991
5329 27185
1032 12683
3131 21488
9299 33792
